asp/input/in_40_20_9_4.lp
#const n = 40.
#const k = 20.
#const h = 9.
tile(1,4,16).
tile(2,15,11).
tile(3,1,12).
tile(4,14,1).
tile(5,7,19).
tile(6,7,19).
tile(7,12,20).
tile(8,9,15).
tile(9,12,1).
tile(10,5,6).
tile(11,12,20).
tile(12,10,4).
tile(13,14,13).
tile(14,6,16).
tile(15,4,9).
tile(16,7,9).
tile(17,13,6).
tile(18,3,6).
tile(19,10,19).
tile(20,14,16).
tile(21,4,12).
tile(22,7,5).
tile(23,11,16).
tile(24,13,13).
tile(25,8,6).
tile(26,15,11).
tile(27,7,17).
tile(28,13,2).
tile(29,13,8).
tile(30,17,3).
tile(31,8,10).
tile(32,18,3).
tile(33,17,19).
tile(34,5,3).
tile(35,17,7).
tile(36,5,1).
tile(37,10,12).
tile(38,6,17).
tile(39,20,12).
tile(40,2,6).
