instances/in_40_20_9_4.dzn
n = 40;
k = 20;
h = 9;
tiles = array2d(1..n, 1..2,
[ 4,16
, 15,11
, 1,12
, 14,1
, 7,19
, 7,19
, 12,20
, 9,15
, 12,1
, 5,6
, 12,20
, 10,4
, 14,13
, 6,16
, 4,9
, 7,9
, 13,6
, 3,6
, 10,19
, 14,16
, 4,12
, 7,5
, 11,16
, 13,13
, 8,6
, 15,11
, 7,17
, 13,2
, 13,8
, 17,3
, 8,10
, 18,3
, 17,19
, 5,3
, 17,7
, 5,1
, 10,12
, 6,17
, 20,12
, 2,6
]);